experiment/data/hgs-res/Vrp-Set-E-n76/Vrp-Set-E-n76-hgs/1.hgs1.tour
Route #1: 63 23 56 41 43 1 73
Route #2: 33 42 64 22 62
Route #3: 4 30 2 6
Route #4: 75
Route #5: 68 28 61 69 21 74
Route #6: 48 47 5 29 45
Route #7: 57 15 37 20 70 60 71 36
Route #8: 8 19 54 13 27 52
Route #9: 67 34 46 26
Route #10: 35 14 59 53
Route #11: 65 66 11 7
Route #12: 58 38 10 31 72
Route #13: 17 40 9 12
Route #14: 39 25 55 18 50 32
Route #15: 3 44 24 49 16 51
Cost 1024.4
